Bruniera/ragionamento automatico/progetto/benchmark/asp/hard1.lp
start(0).
limit(6).
n(30).
strada(0,2,6).
strada(0,5,17).
strada(0,6,11).
strada(0,9,20).
strada(0,14,8).
strada(0,15,7).
strada(0,16,0).
strada(0,17,13).
strada(0,18,3).
strada(0,19,6).
strada(0,20,5).
strada(0,21,12).
strada(0,23,7).
strada(0,26,20).
strada(1,0,12).
strada(1,2,12).
strada(1,4,9).
strada(1,6,9).
strada(1,7,5).
strada(1,9,13).
strada(1,10,12).
strada(1,11,15).
strada(1,18,1).
strada(1,20,3).
strada(1,21,16).
strada(1,24,4).
strada(1,25,12).
strada(1,27,1).
strada(1,28,7).
strada(2,4,19).
strada(2,5,16).
strada(2,6,17).
strada(2,7,16).
strada(2,8,14).
strada(2,9,5).
strada(2,11,15).
strada(2,13,19).
strada(2,14,19).
strada(2,16,4).
strada(2,19,11).
strada(2,20,8).
strada(2,21,7).
strada(2,22,2).
strada(2,23,12).
strada(3,2,1).
strada(3,4,0).
strada(3,5,3).
strada(3,6,20).
strada(3,7,12).
strada(3,12,15).
strada(3,13,4).
strada(3,14,10).
strada(3,16,3).
strada(3,19,14).
strada(3,22,19).
strada(3,24,11).
strada(3,28,19).
strada(4,6,13).
strada(4,10,20).
strada(4,11,8).
strada(4,12,15).
strada(4,15,20).
strada(4,16,7).
strada(4,17,7).
strada(4,22,0).
strada(4,25,20).
strada(4,29,10).
strada(5,1,14).
strada(5,4,11).
strada(5,12,0).
strada(5,15,11).
strada(5,17,1).
strada(5,19,16).
strada(5,20,6).
strada(5,22,15).
strada(5,24,9).
strada(5,25,15).
strada(5,26,0).
strada(6,1,13).
strada(6,2,13).
strada(6,4,11).
strada(6,7,16).
strada(6,8,14).
strada(6,9,0).
strada(6,13,13).
strada(6,14,14).
strada(6,16,1).
strada(6,17,7).
strada(6,20,7).
strada(6,21,10).
strada(6,24,1).
strada(6,26,2).
strada(6,27,6).
strada(6,28,1).
strada(7,1,14).
strada(7,5,3).
strada(7,6,7).
strada(7,8,20).
strada(7,13,4).
strada(7,15,13).
strada(7,17,16).
strada(7,18,13).
strada(7,19,15).
strada(7,26,12).
strada(7,27,13).
strada(7,29,12).
strada(8,0,8).
strada(8,5,9).
strada(8,9,20).
strada(8,11,15).
strada(8,12,1).
strada(8,14,8).
strada(8,20,0).
strada(8,22,8).
strada(8,23,11).
strada(8,25,13).
strada(8,28,8).
strada(8,29,0).
strada(9,3,5).
strada(9,6,11).
strada(9,7,19).
strada(9,8,0).
strada(9,15,0).
strada(9,24,4).
strada(9,26,12).
strada(10,0,3).
strada(10,3,8).
strada(10,4,0).
strada(10,7,8).
strada(10,8,14).
strada(10,13,11).
strada(10,14,18).
strada(10,15,17).
strada(10,18,8).
strada(10,19,2).
strada(10,20,11).
strada(10,21,10).
strada(10,22,4).
strada(10,25,15).
strada(10,26,7).
strada(10,27,3).
strada(10,28,7).
strada(10,29,17).
strada(11,0,1).
strada(11,1,10).
strada(11,2,12).
strada(11,5,19).
strada(11,7,10).
strada(11,10,10).
strada(11,12,19).
strada(11,14,0).
strada(11,16,11).
strada(11,17,18).
strada(11,18,8).
strada(11,19,19).
strada(11,22,17).
strada(11,25,17).
strada(11,28,8).
strada(12,2,16).
strada(12,3,2).
strada(12,4,10).
strada(12,8,7).
strada(12,11,19).
strada(12,13,12).
strada(12,15,8).
strada(12,17,9).
strada(12,18,9).
strada(12,19,2).
strada(12,20,10).
strada(12,21,18).
strada(12,26,10).
strada(13,1,9).
strada(13,3,0).
strada(13,4,12).
strada(13,5,13).
strada(13,8,18).
strada(13,10,1).
strada(13,12,20).
strada(13,14,3).
strada(13,15,18).
strada(13,18,12).
strada(13,19,17).
strada(13,22,1).
strada(13,23,1).
strada(13,24,1).
strada(13,26,19).
strada(13,27,20).
strada(13,29,12).
strada(14,0,14).
strada(14,1,19).
strada(14,3,19).
strada(14,4,7).
strada(14,6,0).
strada(14,7,2).
strada(14,10,7).
strada(14,11,19).
strada(14,16,17).
strada(14,17,5).
strada(14,24,2).
strada(14,26,9).
strada(14,29,16).
strada(15,0,19).
strada(15,1,16).
strada(15,4,2).
strada(15,5,12).
strada(15,7,10).
strada(15,9,14).
strada(15,11,11).
strada(15,12,0).
strada(15,13,7).
strada(15,14,9).
strada(15,21,6).
strada(15,22,12).
strada(15,23,11).
strada(15,24,10).
strada(15,25,0).
strada(15,27,6).
strada(16,2,19).
strada(16,3,14).
strada(16,7,19).
strada(16,8,9).
strada(16,10,10).
strada(16,12,18).
strada(16,13,13).
strada(16,17,10).
strada(16,18,12).
strada(16,20,8).
strada(16,22,12).
strada(16,24,0).
strada(16,27,2).
strada(17,0,3).
strada(17,4,8).
strada(17,5,13).
strada(17,9,19).
strada(17,10,5).
strada(17,15,17).
strada(17,16,15).
strada(17,19,13).
strada(17,20,2).
strada(17,22,10).
strada(17,23,2).
strada(17,24,15).
strada(17,25,20).
strada(17,26,9).
strada(18,0,4).
strada(18,2,3).
strada(18,4,17).
strada(18,12,15).
strada(18,14,8).
strada(18,16,6).
strada(18,17,16).
strada(18,20,2).
strada(18,21,12).
strada(18,22,6).
strada(18,25,14).
strada(18,28,2).
strada(19,6,6).
strada(19,14,12).
strada(19,16,16).
strada(19,20,12).
strada(19,21,12).
strada(19,22,6).
strada(19,23,20).
strada(19,24,1).
strada(19,25,3).
strada(19,28,20).
strada(20,2,10).
strada(20,3,2).
strada(20,4,16).
strada(20,6,18).
strada(20,7,5).
strada(20,8,14).
strada(20,10,6).
strada(20,13,0).
strada(20,14,8).
strada(20,16,15).
strada(20,19,14).
strada(20,23,11).
strada(20,25,0).
strada(20,26,15).
strada(20,27,12).
strada(20,29,2).
strada(21,4,16).
strada(21,5,3).
strada(21,11,12).
strada(21,12,16).
strada(21,13,17).
strada(21,15,0).
strada(21,16,18).
strada(21,17,14).
strada(21,18,16).
strada(21,19,16).
strada(21,20,7).
strada(21,22,2).
strada(21,28,14).
strada(22,1,10).
strada(22,3,19).
strada(22,4,19).
strada(22,6,10).
strada(22,8,4).
strada(22,9,18).
strada(22,10,1).
strada(22,16,19).
strada(22,17,6).
strada(22,21,4).
strada(22,25,2).
strada(22,28,6).
strada(22,29,15).
strada(23,0,1).
strada(23,2,2).
strada(23,3,9).
strada(23,4,11).
strada(23,5,10).
strada(23,6,3).
strada(23,7,12).
strada(23,10,14).
strada(23,14,0).
strada(23,15,9).
strada(23,16,2).
strada(23,17,14).
strada(23,19,8).
strada(23,22,18).
strada(23,24,12).
strada(23,26,11).
strada(23,28,0).
strada(23,29,16).
strada(24,1,11).
strada(24,2,16).
strada(24,4,13).
strada(24,6,0).
strada(24,7,13).
strada(24,8,17).
strada(24,9,20).
strada(24,10,13).
strada(24,13,10).
strada(24,16,13).
strada(24,26,1).
strada(24,27,5).
strada(24,28,20).
strada(24,29,17).
strada(25,0,12).
strada(25,2,0).
strada(25,3,17).
strada(25,5,1).
strada(25,7,10).
strada(25,10,11).
strada(25,16,18).
strada(25,19,11).
strada(25,22,9).
strada(25,27,14).
strada(25,29,12).
strada(26,1,4).
strada(26,3,2).
strada(26,5,18).
strada(26,11,20).
strada(26,15,3).
strada(26,16,19).
strada(26,17,18).
strada(26,22,8).
strada(26,28,0).
strada(27,0,6).
strada(27,1,2).
strada(27,2,8).
strada(27,3,11).
strada(27,8,16).
strada(27,10,3).
strada(27,12,14).
strada(27,15,20).
strada(27,16,3).
strada(27,17,4).
strada(27,18,14).
strada(27,23,8).
strada(27,24,13).
strada(27,25,1).
strada(27,26,19).
strada(27,28,19).
strada(28,0,20).
strada(28,1,14).
strada(28,4,3).
strada(28,5,6).
strada(28,9,9).
strada(28,10,16).
strada(28,11,11).
strada(28,14,20).
strada(28,19,15).
strada(28,29,15).
strada(29,2,20).
strada(29,3,8).
strada(29,11,10).
strada(29,12,15).
strada(29,13,10).
strada(29,14,4).
strada(29,15,0).
strada(29,18,5).
strada(29,21,8).
strada(29,23,12).
strada(29,24,15).
strada(29,25,11).
strada(29,28,12).
