Bruniera/ragionamento automatico/progetto/benchmark/minizinc/hard1.dzn
start = 1;
limit = 6;
n = 30;
m=[|-1,-1,6,-1,-1,17,11,-1,-1,20,-1,-1,-1,-1,8,7,0,13,3,6,5,12,-1,7,-1,-1,20,-1,-1,-1,
|12,-1,12,-1,9,-1,9,5,-1,13,12,15,-1,-1,-1,-1,-1,-1,1,-1,3,16,-1,-1,4,12,-1,1,7,-1,
|-1,-1,-1,-1,19,16,17,16,14,5,-1,15,-1,19,19,-1,4,-1,-1,11,8,7,2,12,-1,-1,-1,-1,-1,-1,
|-1,-1,1,-1,0,3,20,12,-1,-1,-1,-1,15,4,10,-1,3,-1,-1,14,-1,-1,19,-1,11,-1,-1,-1,19,-1,
|-1,-1,-1,-1,-1,-1,13,-1,-1,-1,20,8,15,-1,-1,20,7,7,-1,-1,-1,-1,0,-1,-1,20,-1,-1,-1,10,
|-1,14,-1,-1,11,-1,-1,-1,-1,-1,-1,-1,0,-1,-1,11,-1,1,-1,16,6,-1,15,-1,9,15,0,-1,-1,-1,
|-1,13,13,-1,11,-1,-1,16,14,0,-1,-1,-1,13,14,-1,1,7,-1,-1,7,10,-1,-1,1,-1,2,6,1,-1,
|-1,14,-1,-1,-1,3,7,-1,20,-1,-1,-1,-1,4,-1,13,-1,16,13,15,-1,-1,-1,-1,-1,-1,12,13,-1,12,
|8,-1,-1,-1,-1,9,-1,-1,-1,20,-1,15,1,-1,8,-1,-1,-1,-1,-1,0,-1,8,11,-1,13,-1,-1,8,0,
|-1,-1,-1,5,-1,-1,11,19,0,-1,-1,-1,-1,-1,-1,0,-1,-1,-1,-1,-1,-1,-1,-1,4,-1,12,-1,-1,-1,
|3,-1,-1,8,0,-1,-1,8,14,-1,-1,-1,-1,11,18,17,-1,-1,8,2,11,10,4,-1,-1,15,7,3,7,17,
|1,10,12,-1,-1,19,-1,10,-1,-1,10,-1,19,-1,0,-1,11,18,8,19,-1,-1,17,-1,-1,17,-1,-1,8,-1,
|-1,-1,16,2,10,-1,-1,-1,7,-1,-1,19,-1,12,-1,8,-1,9,9,2,10,18,-1,-1,-1,-1,10,-1,-1,-1,
|-1,9,-1,0,12,13,-1,-1,18,-1,1,-1,20,-1,3,18,-1,-1,12,17,-1,-1,1,1,1,-1,19,20,-1,12,
|14,19,-1,19,7,-1,0,2,-1,-1,7,19,-1,-1,-1,-1,17,5,-1,-1,-1,-1,-1,-1,2,-1,9,-1,-1,16,
|19,16,-1,-1,2,12,-1,10,-1,14,-1,11,0,7,9,-1,-1,-1,-1,-1,-1,6,12,11,10,0,-1,6,-1,-1,
|-1,-1,19,14,-1,-1,-1,19,9,-1,10,-1,18,13,-1,-1,-1,10,12,-1,8,-1,12,-1,0,-1,-1,2,-1,-1,
|3,-1,-1,-1,8,13,-1,-1,-1,19,5,-1,-1,-1,-1,17,15,-1,-1,13,2,-1,10,2,15,20,9,-1,-1,-1,
|4,-1,3,-1,17,-1,-1,-1,-1,-1,-1,-1,15,-1,8,-1,6,16,-1,-1,2,12,6,-1,-1,14,-1,-1,2,-1,
|-1,-1,-1,-1,-1,-1,6,-1,-1,-1,-1,-1,-1,-1,12,-1,16,-1,-1,-1,12,12,6,20,1,3,-1,-1,20,-1,
|-1,-1,10,2,16,-1,18,5,14,-1,6,-1,-1,0,8,-1,15,-1,-1,14,-1,-1,-1,11,-1,0,15,12,-1,2,
|-1,-1,-1,-1,16,3,-1,-1,-1,-1,-1,12,16,17,-1,0,18,14,16,16,7,-1,2,-1,-1,-1,-1,-1,14,-1,
|-1,10,-1,19,19,-1,10,-1,4,18,1,-1,-1,-1,-1,-1,19,6,-1,-1,-1,4,-1,-1,-1,2,-1,-1,6,15,
|1,-1,2,9,11,10,3,12,-1,-1,14,-1,-1,-1,0,9,2,14,-1,8,-1,-1,18,-1,12,-1,11,-1,0,16,
|-1,11,16,-1,13,-1,0,13,17,20,13,-1,-1,10,-1,-1,13,-1,-1,-1,-1,-1,-1,-1,-1,-1,1,5,20,17,
|12,-1,0,17,-1,1,-1,10,-1,-1,11,-1,-1,-1,-1,-1,18,-1,-1,11,-1,-1,9,-1,-1,-1,-1,14,-1,12,
|-1,4,-1,2,-1,18,-1,-1,-1,-1,-1,20,-1,-1,-1,3,19,18,-1,-1,-1,-1,8,-1,-1,-1,-1,-1,0,-1,
|6,2,8,11,-1,-1,-1,-1,16,-1,3,-1,14,-1,-1,20,3,4,14,-1,-1,-1,-1,8,13,1,19,-1,19,-1,
|20,14,-1,-1,3,6,-1,-1,-1,9,16,11,-1,-1,20,-1,-1,-1,-1,15,-1,-1,-1,-1,-1,-1,-1,-1,-1,15,
|-1,-1,20,8,-1,-1,-1,-1,-1,-1,-1,10,15,10,4,0,-1,-1,5,-1,-1,8,-1,12,15,11,-1,-1,12,-1,
|]
;